p tw 162 460
0 1
0 2
0 10
0 53
1 2
1 12
1 82
2 11
3 4
3 90
3 155
4 91
4 139
5 6
5 7
5 8
5 9
5 51
5 142
5 147
5 148
5 149
6 7
6 8
6 9
6 52
6 146
7 8
7 9
7 69
7 70
7 71
7 72
7 73
8 9
8 50
8 137
8 138
9 98
9 99
9 100
10 11
10 12
10 53
11 12
12 82
13 14
13 15
13 24
13 84
13 109
13 139
13 155
14 15
14 83
14 110
15 17
15 68
16 17
16 18
16 102
16 143
17 18
17 68
18 101
19 20
19 21
19 22
19 23
19 86
19 87
19 88
19 89
20 21
20 22
20 23
20 123
20 130
20 154
20 158
20 160
21 22
21 23
21 124
21 161
22 23
22 42
23 119
24 25
24 84
24 109
24 139
24 155
25 55
25 63
25 64
25 65
26 27
26 106
26 126
26 127
27 95
27 107
27 128
27 151
27 152
28 29
28 108
28 120
29 79
29 122
29 140
30 31
30 32
30 33
30 42
30 43
30 44
30 45
31 32
31 33
31 49
31 50
31 51
31 52
32 33
32 125
33 146
34 35
34 57
34 154
35 56
35 158
36 37
36 38
36 39
36 40
36 41
37 38
37 132
37 133
38 114
38 115
38 116
39 40
39 41
39 114
39 132
39 141
39 142
39 143
40 41
40 72
40 115
40 133
40 147
40 159
41 145
42 43
42 44
42 45
43 44
43 45
43 131
44 45
44 117
44 125
45 59
45 74
45 118
46 47
46 48
46 76
46 77
46 78
46 79
47 48
47 144
48 122
49 50
49 51
49 52
49 77
50 51
50 52
50 137
50 138
51 52
51 142
51 147
51 148
51 149
52 146
53 58
53 59
53 60
53 61
53 62
54 55
54 81
55 63
55 64
55 65
56 57
56 158
57 154
58 59
58 60
58 61
58 62
58 96
58 157
59 60
59 61
59 62
59 74
59 118
60 61
60 62
60 67
60 97
60 121
61 62
61 75
61 92
61 150
62 66
62 93
62 105
62 112
62 113
63 64
63 65
63 83
63 84
63 85
64 65
64 80
64 81
65 103
65 109
65 110
65 111
66 67
66 93
66 105
66 112
66 113
67 97
67 121
68 101
68 102
69 70
69 71
69 72
69 73
69 99
70 71
70 72
70 73
70 98
70 137
70 148
71 72
71 73
71 100
72 73
72 115
72 133
72 147
72 159
73 136
74 75
74 118
75 92
75 150
76 77
76 78
76 79
76 141
76 144
76 145
77 78
77 79
78 79
78 103
79 122
79 140
80 81
80 104
80 153
80 156
82 160
82 161
83 84
83 85
83 110
84 85
84 109
84 139
84 155
85 111
86 87
86 88
86 89
86 130
87 88
87 89
87 119
87 123
87 124
88 89
88 134
89 135
89 138
90 91
90 155
91 139
92 93
92 94
92 95
92 96
92 97
92 150
93 94
93 95
93 96
93 97
93 105
93 112
93 113
94 95
94 96
94 97
94 129
95 96
95 97
95 107
95 128
95 151
95 152
96 97
96 157
97 121
98 99
98 100
98 137
98 148
99 100
101 102
102 143
103 109
103 110
103 111
104 105
104 106
104 107
104 108
104 153
104 156
105 106
105 107
105 108
105 112
105 113
106 107
106 108
106 126
106 127
107 108
107 128
107 151
107 152
108 120
109 110
109 111
109 139
109 155
110 111
112 113
112 126
112 151
112 156
113 120
113 131
113 140
113 153
114 115
114 116
114 132
114 141
114 142
114 143
115 116
115 133
115 147
115 159
116 149
117 118
117 125
119 123
119 124
120 131
120 140
120 153
121 150
121 157
122 140
123 124
123 130
123 154
123 158
123 160
124 161
126 127
126 151
126 156
127 152
128 129
128 151
128 152
130 154
130 158
130 160
131 140
131 153
132 133
132 141
132 142
132 143
133 147
133 159
134 135
135 138
136 159
137 138
137 148
139 155
140 153
141 142
141 143
141 144
141 145
142 143
142 147
142 148
142 149
144 145
147 148
147 149
147 159
148 149
150 157
151 152
151 156
153 156
154 158
154 160
158 160
160 161
